nNurses = 140;
nHours = 35;
minHours = 5;
maxHours = 10;
maxConsec = 9;
maxPresence = 31;
demand = [11, 15, 18, 14, 10, 7, 9, 9, 12, 13, 10, 10, 14, 16, 19, 14, 12, 10, 12, 12, 8, 13, 16, 12, 12, 16, 19, 15, 10, 10, 15, 14, 10, 9, 12];
